(declare-const a Real)
(declare-const b Real)
(declare-const c Real)
(assert (= (+ a b c) 3))
(assert (> a 0))
(assert (> b 0))
(assert (> c 0))
(assert (not (<= (+ (/ -3 4) (* 27 a (pow (+ (* 162 (pow a 2)) (* 18 (pow 3 (/ 1 2)) (pow a (/ 1 2)) (pow (+ a b c) (/ 3 2)))) -1) (+ a b c)) (* 27 b (pow (+ (* 9 (pow (+ a b c) 2)) (* 162 (pow b 2)) (* 27 b (+ a b c))) -1) (+ a b c)) (* 27 c (pow (+ (* 3 (pow a 2)) (* 3 (pow b 2)) (* 3 (pow c 2))) (/ 1 2)) (pow (+ (* 9 (pow (+ a b c) 2)) (* 162 (pow c 2)) (* 27 c (+ a b c))) -1))) 0)))
(check-sat)
(get-model)
(exit)